100
23664

957 319
398 966
814 401
842 438
615 536
254 891
422 35
494 332
731 438
281 93
654 84
556 89
706 505
77 540
558 174
427 971
514 987
324 187
764 951
42 554
120 114
836 36
527 974
935 19
83 135
155 813
453 133
648 724
14 153
542 668
914 897
436 120
973 621
605 699
813 570
678 716
237 302
285 866
296 63
372 530
373 82
520 868
111 243
417 517
954 600
572 818
796 76
897 13
469 46
281 747
931 207
925 739
697 12
905 686
131 58
200 326
265 140
421 566
484 124
234 85
182 342
463 982
231 871
875 4
87 684
507 107
340 8
338 504
256 73
169 844
314 345
144 193
208 471
843 466
806 406
975 552
280 880
911 739
184 279
4 651
611 460
274 254
761 279
145 834
13 175
475 536
412 240
207 939
217 642
500 951
520 625
462 831
329 499
647 642
746 568
527 758
965 510
515 297
378 977
46 212
